%más trabajo sin mantenimiento
n_jobs = 5;
n_machines = 3;
n_ops_for = [2, 2, 2, 2, 2];
dur = array2d(1..5, 1..2, [
  4, 3,
  5, 4,
  6, 2,
  3, 5,
  2, 6
]);
machine_for = array2d(1..5, 1..2, [
  1, 2,
  2, 3,
  3, 1,
  1, 3,
  2, 1
]);
maint_start = [0, 0, 0];
maint_end   = [0, 0, 0];

